!RKS RIJCOSX M062X cc-pVDZ PMODEL  
% output 
	Print[P_hirshfeld] 1
 end
*xyz 0 1
 O  0.00000  0.00000  0.00000
 H  0.00000 -0.94570  0.00000
 C -1.33503  0.45942  0.00000
 H -1.35881  1.54961  0.00000
 H -1.86232  0.10342 -0.88556
 H -1.86232  0.10342  0.88556
*
